Maximize

5 x_0 + 3 x_1 + 5 x_2 + 5 x_3 + 5 x_4 + 5 x_5 + 2 x_6 + 2 x_7 + 4 x_8 + 4 x_9 + 4 x_10 + 5 x_11 + 4 x_12 + 3 x_13 + 4 x_14 + 1 x_15 + 2 x_16 + 2 x_17 + 2 x_18 + 3 x_19


Subject To

a0: x_1 + x_3 + x_12 + x_16 + x_19 >= 1
a1: x_1 + x_3 + x_4 + x_5 + x_6 + x_8 + x_18 >= 1
a2: x_2 + x_3 + x_8 + x_15 + x_16 + x_18 >= 1
a3: x_3 + x_6 + x_8 + x_10 + x_12 + x_14 + x_19 >= 1
a4: x_1 + x_12 + x_15 + x_16 + x_18 >= 1
a5: x_1 + x_2 + x_4 + x_5 + x_9 + x_10 + x_15 >= 1
a6: x_6 + x_8 + x_12 >= 1
a7: x_3 + x_15 + x_18 >= 1
a8: x_4 + x_14 + x_19 >= 1
a9: x_0 + x_3 + x_6 + x_12 + x_15 + x_18 >= 1
a10: x_6 + x_7 + x_16 + x_19 >= 1
a11: x_1 + x_4 + x_6 + x_8 + x_15 + x_19 >= 1
a12: x_0 + x_1 + x_3 + x_4 + x_5 + x_10 + x_15 >= 1
a13: x_0 + x_1 + x_4 + x_5 + x_15 + x_16 >= 1
a14: x_6 + x_8 + x_13 + x_16 + x_17 + x_19 >= 1
a15: x_4 + x_6 + x_8 + x_11 + x_18 >= 1
b0: x_0 + x_4 <= 1
b1: x_0 + x_8 <= 1
b2: x_0 + x_18 <= 1
b3: x_1 + x_9 <= 1
b4: x_2 + x_4 <= 1
b5: x_2 + x_14 <= 1
b6: x_3 + x_9 <= 1
b7: x_4 + x_0 <= 1
b8: x_4 + x_2 <= 1
b9: x_4 + x_6 <= 1
b10: x_4 + x_10 <= 1
b11: x_5 + x_9 <= 1
b12: x_6 + x_4 <= 1
b13: x_6 + x_13 <= 1
b14: x_7 + x_11 <= 1
b15: x_7 + x_18 <= 1
b16: x_8 + x_0 <= 1
b17: x_8 + x_16 <= 1
b18: x_8 + x_17 <= 1
b19: x_9 + x_1 <= 1
b20: x_9 + x_3 <= 1
b21: x_9 + x_5 <= 1
b22: x_9 + x_12 <= 1
b23: x_10 + x_4 <= 1
b24: x_10 + x_17 <= 1
b25: x_11 + x_7 <= 1
b26: x_11 + x_12 <= 1
b27: x_12 + x_9 <= 1
b28: x_12 + x_11 <= 1
b29: x_12 + x_15 <= 1
b30: x_13 + x_6 <= 1
b31: x_14 + x_2 <= 1
b32: x_15 + x_12 <= 1
b33: x_15 + x_19 <= 1
b34: x_16 + x_8 <= 1
b35: x_17 + x_8 <= 1
b36: x_17 + x_10 <= 1
b37: x_18 + x_0 <= 1
b38: x_18 + x_7 <= 1
b39: x_19 + x_15 <= 1
c0: 1302.6 x_0 + 1196.3 x_1 + 1268.8 x_2 + 1779.3 x_3 + 1931.0 x_4 + 1791.8 x_5 + 1955.9 x_6 + 1723.5 x_7 + 1560.6 x_8 + 1633.2 x_9 + 1290.8 x_10 + 1396.3 x_11 + 1707.9 x_12 + 1349.4 x_13 + 1266.1 x_14 + 1479.4 x_15 + 1906.0 x_16 + 1724.2 x_17 + 1564.8 x_18 + 1021.7 x_19 <= 20566




Binary

x_0 x_1 x_2 x_3 x_4 x_5 x_6 x_7 x_8 x_9 x_10 x_11 x_12 x_13 x_14 x_15 x_16 x_17 x_18 x_19

 


End
